! BP86 def2-SVP def2/J RI Opt TightSCF D3BJ
! SlowConv

%pal nprocs 8 end
%maxcore 2500

%geom
  MaxIter 300
end

* xyz 0 1
B      2.00000000     -0.00000000      0.80000000
B      2.00000000     -0.00000000     -0.80000000
B      1.00000000      1.73205081      0.80000000
B      1.00000000      1.73205081     -0.80000000
B     -1.00000000      1.73205081      0.80000000
B     -1.00000000      1.73205081     -0.80000000
B     -2.00000000      0.00000000      0.80000000
B     -2.00000000      0.00000000     -0.80000000
B     -1.00000000     -1.73205081      0.80000000
B     -1.00000000     -1.73205081     -0.80000000
B      1.00000000     -1.73205081      0.80000000
B      1.00000000     -1.73205081     -0.80000000
*
