! BP86 def2-SVP def2/J RI Opt TightSCF D3BJ
! SlowConv

%pal nprocs 8 end
%maxcore 2500

%geom
  MaxIter 300
end

* xyz 0 1
B      3.32625938     -1.46729796     -1.10449428
B     -1.12297398      1.95883169     -1.96808824
B     -0.23325220     -2.74538076     -1.24980344
B     -2.03074165     -1.82327037      1.24649568
B     -3.20870418      0.09091573     -0.84563213
B      0.76916701     -1.83919982      1.89000826
B      0.16930233     -0.03632754      1.26565749
B      1.68190849      2.29771218     -2.12133044
B     -1.94618113      0.88701107      1.63964856
B      2.74160746      0.83527907      1.67717028
B      0.72299601      2.32729659      1.07474925
B     -0.86938754     -0.48556988     -1.50438098
*
