! BP86 def2-SVP def2/J RI Opt TightSCF
%pal nprocs 8 end
%maxcore 2500
* xyz 0 1
B      0.0000   -0.9000   -1.4562
B     -0.9000   -1.4562    0.0000
B     -1.4562    0.0000   -0.9000
B      0.0000   -0.9000    1.4562
B     -0.9000    1.4562    0.0000
B      1.4562    0.0000   -0.9000
B      0.0000    0.9000   -1.4562
B      0.9000   -1.4562    0.0000
B     -1.4562    0.0000    0.9000
B      0.0000    0.9000    1.4562
B      0.9000    1.4562    0.0000
B      1.4562    0.0000    0.9000
*
