! BP86 def2-SVP def2/J RI Opt TightSCF D3BJ
! SlowConv

%pal nprocs 8 end
%maxcore 2500

%geom
  MaxIter 300
end

* xyz 0 1
B      1.44337567      0.00000000      0.39364791
B     -0.72168784      1.25000000      0.39364791
B     -0.72168784     -1.25000000      0.39364791
B      4.56961529      0.45849085     -0.13121597
B      3.20581616      3.28851646     -0.13121597
B      0.34198002      4.57980867     -0.13121597
B     -2.68187237      3.72815750     -0.13121597
B     -4.45084688      1.13206001     -0.13121597
B     -4.13722066     -1.99374095     -0.13121597
B     -1.88774292     -4.18664836     -0.13121597
B      1.24503071     -4.42057647     -0.13121597
B      3.79524064     -2.58606772     -0.13121597
*
