! BP86 def2-SVP def2/J RI Opt TightSCF D3BJ
! SlowConv

%pal nprocs 8 end
%maxcore 2500

%geom
  MaxIter 300
end

* xyz 0 1
B      1.67914890     -0.00000000      0.67165956
B      0.83957445      1.45418560      0.67165956
B     -0.83957445      1.45418560      0.67165956
B     -1.67914890      0.00000000      0.67165956
B     -0.83957445     -1.45418560      0.67165956
B      0.83957445     -1.45418560      0.67165956
B      1.45418560      0.83957445     -0.67165956
B      0.00000000      1.67914890     -0.67165956
B     -1.45418560      0.83957445     -0.67165956
B     -1.45418560     -0.83957445     -0.67165956
B     -0.00000000     -1.67914890     -0.67165956
B      1.45418560     -0.83957445     -0.67165956
*
