! BP86 def2-SVP def2/J RI Opt TightSCF D3BJ
! SlowConv

%pal nprocs 8 end
%maxcore 2500

%geom
  MaxIter 300
end

* xyz 0 1
B      1.20653817      0.12324272      0.36448389
B     -0.77282385      1.13580338      0.38187451
B     -0.65789325     -0.91283228      0.36960419
B      3.69981211      0.37105602     -0.02296583
B      2.45418482      2.60637668     -0.17729067
B      0.36341095      3.66980525     -0.14884129
B     -2.26278417      2.94394717     -0.10375145
B     -3.60201794      1.09975758      0.04603587
B     -3.71645090     -1.87834475     -0.13118859
B     -1.57352290     -3.31727224     -0.07237449
B      1.31370038     -3.70326429     -0.16161353
B      3.34260825     -1.97184873     -0.00551327
*
