! BP86 def2-SVP def2/J RI Opt TightSCF D3BJ
! SlowConv

%pal nprocs 8 end
%maxcore 2500

%geom
  MaxIter 300
end

* xyz 0 1
B      0.02835801     -1.28049379     -1.26404106
B     -1.56830164      0.26995611     -1.03045665
B     -1.25089495     -1.08601054      0.04218160
B     -0.08307343     -1.05544641      1.15549805
B     -1.25140511     -0.11882201      1.27032524
B     -1.21696124      1.28387484     -0.09107785
B      0.01902418      1.06824042     -1.07586178
B      1.23028679      0.04958565     -1.14050594
B      1.05046790     -1.08460438      0.30850542
B     -0.24576638      0.94266981      0.97635682
B      1.32830036      0.01930735      1.36383289
B      1.31044616      1.23366730      0.04260572
*
