! BP86 def2-SVP def2/J RI Opt TightSCF D3BJ
! SlowConv

%pal nprocs 8 end
%maxcore 2500

%geom
  MaxIter 300
end

* xyz 0 1
B      2.12729413     -0.07841227      0.77761492
B      0.68324796      2.08768811      1.01119933
B     -1.09828149      1.93380299      0.88175605
B     -2.18200955      0.14663512      0.79299097
B     -1.09879165     -1.93655402      0.90781816
B      1.03458835     -1.73593870      0.74849660
B      1.83675618      0.91562696     -0.71335470
B      0.02820526      2.14852178     -0.77799886
B     -1.96934563      1.16694521     -0.53106903
B     -2.06349838     -1.30887978     -1.06529916
B      0.12621883     -2.07962878     -0.67782308
B      1.92609664     -1.01788229     -0.79696873
*
