! BP86 def2-SVP def2/J RI Opt TightSCF D3BJ
! SlowConv

%pal nprocs 8 end
%maxcore 2500

%geom
  MaxIter 300
end

* xyz 0 1
B      0.01885953     -1.22189726     -1.10601813
B     -1.18634651     -0.08035041     -1.14784227
B     -1.00648152     -1.06001938     -0.10556029
B     -0.18981322     -1.29557270      1.20828042
B     -1.55083614     -0.03281875      1.01519489
B     -1.31192163      1.12044268     -0.04744502
B      0.06174458      1.35845853     -1.22136173
B      1.40705105     -0.09977920     -1.14935502
B      1.33760206     -1.18797968     -0.11152489
B     -0.13825881      1.13342265      1.23511080
B      1.05063880     -0.03137634      1.17819778
B      1.28320837      1.23428040      0.05330591
*
