! B3LYP def2-TZVP def2/J RIJCOSX Opt TightSCF D3BJ Freq

%pal nprocs 8 end
%maxcore 2500

%geom
  MaxIter 500
end

* xyz 0 1
  B           0.95341771839618     -0.22932182855942     -0.38029481145746
  B          -0.27816331788125      0.94037512876229     -0.37851411842369
  B          -0.67532883110201     -0.71094858850425     -0.37954902732218
  B           2.45189563990221      0.22486244123246      0.16902894304807
  B           1.40839732037433      1.48312029447498      0.04036580183579
  B           0.09810850554942      2.46065419421687      0.16964339033827
  B          -1.42082364806770      2.01117475897943      0.17022398664121
  B          -1.98870156192235      0.47823664010440      0.04160053137455
  B          -2.17958105293080     -1.14531630691756      0.16998455313004
  B          -1.03111076982374     -2.23601423228307      0.16903081820607
  B           0.58024239087149     -1.96165668977423      0.03981399685096
  B           2.08164760663422     -1.31516581173190      0.16866590577836
*
