! BP86 def2-SVP def2/J RI Opt TightSCF D3BJ
! SlowConv

%pal nprocs 8 end
%maxcore 2500

%geom
  MaxIter 300
end

* xyz 0 1
B      5.24734031     -0.00000000      2.09893613
B      2.62367016      4.54433001      2.09893613
B     -2.62367016      4.54433001      2.09893613
B     -5.24734031      0.00000000      2.09893613
B     -2.62367016     -4.54433001      2.09893613
B      2.62367016     -4.54433001      2.09893613
B      4.54433001      2.62367016     -2.09893613
B      0.00000000      5.24734031     -2.09893613
B     -4.54433001      2.62367016     -2.09893613
B     -4.54433001     -2.62367016     -2.09893613
B     -0.00000000     -5.24734031     -2.09893613
B      4.54433001     -2.62367016     -2.09893613
*
