! BP86 def2-SVP def2/J RI Opt TightSCF D3BJ
! SlowConv

%pal nprocs 8 end
%maxcore 2500

%geom
  MaxIter 300
end

* xyz 0 1
B     -1.50000000     -0.00000000      0.00000000
B     -3.37500000      3.24759526      0.00000000
B     -7.12500000      3.24759526      0.00000000
B     -9.00000000      0.00000000      0.00000000
B     -7.12500000     -3.24759526      0.00000000
B     -3.37500000     -3.24759526      0.00000000
B      9.00000000     -0.00000000      0.00000000
B      7.12500000      3.24759526      0.00000000
B      3.37500000      3.24759526      0.00000000
B      1.50000000      0.00000000      0.00000000
B      3.37500000     -3.24759526      0.00000000
B      7.12500000     -3.24759526      0.00000000
*
