! BP86 def2-SVP def2/J RI Opt TightSCF D3BJ
! SlowConv

%pal nprocs 8 end
%maxcore 2500

%geom
  MaxIter 300
end

* xyz 0 1
B      2.88675135      0.00000000      0.78729582
B     -1.44337567      2.50000000      0.78729582
B     -1.44337567     -2.50000000      0.78729582
B      9.13923059      0.91698170     -0.26243194
B      6.41163233      6.57703292     -0.26243194
B      0.68396005      9.15961734     -0.26243194
B     -5.36374474      7.45631501     -0.26243194
B     -8.90169376      2.26412001     -0.26243194
B     -8.27444133     -3.98748190     -0.26243194
B     -3.77548584     -8.37329671     -0.26243194
B      2.49006143     -8.84115294     -0.26243194
B      7.59048128     -5.17213545     -0.26243194
*
