! BP86 def2-SVP def2/J RI Opt TightSCF D3BJ
! SlowConv

%pal nprocs 8 end
%maxcore 2500

%geom
  MaxIter 300
end

* xyz 0 1
B      2.14498576      1.96487670     -0.14201429
B      2.42701899     -1.02264892     -0.30235995
B      1.22246649     -3.40672400      0.14751365
B      1.24038420      2.41169196     -2.21266072
B     -0.50319038     -2.38256902     -1.51078539
B      1.37936185     -0.61903057      1.89704761
B     -1.94937645     -1.54475548      1.90380606
B      0.00296309     -0.20317943     -2.14884896
B     -0.77094280      2.88874545      0.15156611
B     -1.91616876      1.48663290      1.00158841
B     -2.63761345     -0.05420095     -1.99105684
B     -0.63988853      0.48116135      3.20620432
*
