! BP86 def2-SVP def2/J RI Opt TightSCF D3BJ
! SlowConv

%pal nprocs 8 end
%maxcore 2500

%geom
  MaxIter 300
end

* xyz 0 1
B     -1.00000000     -0.00000000      0.00000000
B     -2.25000000      2.16506351      0.00000000
B     -4.75000000      2.16506351      0.00000000
B     -6.00000000      0.00000000      0.00000000
B     -4.75000000     -2.16506351      0.00000000
B     -2.25000000     -2.16506351      0.00000000
B      6.00000000     -0.00000000      0.00000000
B      4.75000000      2.16506351      0.00000000
B      2.25000000      2.16506351      0.00000000
B      1.00000000      0.00000000      0.00000000
B      2.25000000     -2.16506351      0.00000000
B      4.75000000     -2.16506351      0.00000000
*
