! BP86 def2-SVP def2/J RI Opt TightSCF D3BJ
! SlowConv

%pal nprocs 8 end
%maxcore 2500

%geom
  MaxIter 300
end

* xyz 0 1
B      3.75000000     -0.00000000      1.50000000
B      3.75000000     -0.00000000     -1.50000000
B      1.87500000      3.24759526      1.50000000
B      1.87500000      3.24759526     -1.50000000
B     -1.87500000      3.24759526      1.50000000
B     -1.87500000      3.24759526     -1.50000000
B     -3.75000000      0.00000000      1.50000000
B     -3.75000000      0.00000000     -1.50000000
B     -1.87500000     -3.24759526      1.50000000
B     -1.87500000     -3.24759526     -1.50000000
B      1.87500000     -3.24759526      1.50000000
B      1.87500000     -3.24759526     -1.50000000
*
