! BP86 def2-SVP def2/J RI Opt TightSCF D3BJ
! SlowConv

%pal nprocs 8 end
%maxcore 2500

%geom
  MaxIter 300
end

* xyz 0 1
B      0.05183763     -0.87675728     -1.56846843
B     -1.19547358     -1.48223061      0.06695619
B     -1.69857697      0.08716772     -0.94531414
B      0.04411987     -0.99573666      1.70004094
B     -1.11046811      1.59359750     -0.07231790
B      1.70786092      0.00595832     -1.04386851
B     -0.11728627      0.96142116     -1.61681266
B      0.95865956     -1.42392442      0.15100865
B     -2.02470836     -0.28335199      0.97378419
B     -0.06332856      1.03204645      1.65063228
B      1.31767581      1.45123087     -0.05664075
B      1.92444973      0.09700545      1.09945951
*
