! BP86 def2-SVP def2/J RI Opt TightSCF D3BJ
! SlowConv

%pal nprocs 8 end
%maxcore 2500

%geom
  MaxIter 300
end

* xyz 0 1
B      0.01885953     -0.86981573     -1.27926549
B     -0.83426498     -1.45567930      0.05423926
B     -1.17972888      0.14206214     -0.95556029
B     -0.18981322     -0.94349117      1.38152779
B     -1.19875462      1.34251014     -0.18688664
B      1.26548879     -0.08163885     -0.89744502
B      0.06174458      1.00637701     -1.39460909
B      1.05496952     -1.47510809      0.05272651
B     -1.23980836      0.01410184      0.73847511
B     -0.13825881      0.78134113      1.40835816
B      0.69855727      1.34395255     -0.02388375
B      1.45645573      0.03219887      0.90330591
*
