! BP86 def2-SVP def2/J RI Opt TightSCF D3BJ
! SlowConv

%pal nprocs 8 end
%maxcore 2500

%geom
  MaxIter 300
end

* xyz 0 1
B      6.25000000     -0.00000000      2.50000000
B      6.25000000     -0.00000000     -2.50000000
B      3.12500000      5.41265877      2.50000000
B      3.12500000      5.41265877     -2.50000000
B     -3.12500000      5.41265877      2.50000000
B     -3.12500000      5.41265877     -2.50000000
B     -6.25000000      0.00000000      2.50000000
B     -6.25000000      0.00000000     -2.50000000
B     -3.12500000     -5.41265877      2.50000000
B     -3.12500000     -5.41265877     -2.50000000
B      3.12500000     -5.41265877      2.50000000
B      3.12500000     -5.41265877     -2.50000000
*
