! BP86 def2-SVP def2/J RI Opt TightSCF D3BJ
! SlowConv

%pal nprocs 8 end
%maxcore 2500

%geom
  MaxIter 300
end

* xyz 0 1
B      0.00000000     -1.13137085     -1.13137085
B     -1.13137085      0.00000000     -1.13137085
B     -1.13137085     -1.13137085      0.00000000
B      0.00000000     -1.13137085      1.13137085
B     -1.13137085      0.00000000      1.13137085
B     -1.13137085      1.13137085      0.00000000
B      0.00000000      1.13137085     -1.13137085
B      1.13137085      0.00000000     -1.13137085
B      1.13137085     -1.13137085      0.00000000
B      0.00000000      1.13137085      1.13137085
B      1.13137085      0.00000000      1.13137085
B      1.13137085      1.13137085      0.00000000
*
