! B3LYP def2-TZVP def2/J RIJCOSX Opt TightSCF D3BJ Freq

%pal nprocs 8 end
%maxcore 2500

%geom
  MaxIter 500
end

* xyz 0 1
  B           0.95043205163477     -0.23961216221962     -0.38175147208674
  B          -0.26755293359700      0.94466949210521     -0.37744574864553
  B          -0.68397158416732     -0.70213830815194     -0.38067384776709
  B           2.45450351872012      0.19570565079991      0.16750213980904
  B           1.42606785388697      1.46657876594357      0.04185892840722
  B           0.12716751798571      2.45856367465277      0.17532306234255
  B          -1.39668566292529      2.02694573802443      0.17687692872157
  B          -1.98255194454059      0.50117203949931      0.04463150398933
  B          -2.19303792357857     -1.12027194198343      0.16820250438749
  B          -1.05747553642247     -2.22423663302074      0.16467420964074
  B           0.55693222662566     -1.96763466368546      0.03618933200626
  B           2.06617242637801     -1.33974167196401      0.16461248919516
*
