! BP86 def2-SVP def2/J RI Opt TightSCF D3BJ
! SlowConv

%pal nprocs 8 end
%maxcore 2500

%geom
  MaxIter 300
end

* xyz 0 1
B      2.25000000     -0.00000000      0.90000000
B      2.25000000     -0.00000000     -0.90000000
B      1.12500000      1.94855716      0.90000000
B      1.12500000      1.94855716     -0.90000000
B     -1.12500000      1.94855716      0.90000000
B     -1.12500000      1.94855716     -0.90000000
B     -2.25000000      0.00000000      0.90000000
B     -2.25000000      0.00000000     -0.90000000
B     -1.12500000     -1.94855716      0.90000000
B     -1.12500000     -1.94855716     -0.90000000
B      1.12500000     -1.94855716      0.90000000
B      1.12500000     -1.94855716     -0.90000000
*
