! BP86 def2-SVP def2/J RI Opt TightSCF D3BJ
! SlowConv

%pal nprocs 8 end
%maxcore 2500

%geom
  MaxIter 300
end

* xyz 0 1
B      0.02835801     -1.49262583     -1.47617309
B     -1.78043367      0.26995611     -1.24258868
B     -1.46302699     -1.29814257      0.04218160
B     -0.08307343     -1.26757844      1.36763008
B     -1.46353715     -0.11882201      1.48245727
B     -1.42909327      1.49600687     -0.09107785
B      0.01902418      1.28037246     -1.28799382
B      1.44241883      0.04958565     -1.35263798
B      1.26259994     -1.29673641      0.30850542
B     -0.24576638      1.15480184      1.18848885
B      1.54043240      0.01930735      1.57596493
B      1.52257819      1.44579933      0.04260572
*
