! BP86 def2-SVP def2/J RI Opt TightSCF D3BJ
! SlowConv

%pal nprocs 8 end
%maxcore 2500

%geom
  MaxIter 300
end

* xyz 0 1
B      0.05183763     -0.72675728     -1.32576333
B     -1.04547358     -1.23952551      0.06695619
B     -1.45587188      0.08716772     -0.79531414
B      0.04411987     -0.84573666      1.45733584
B     -0.96046811      1.35089240     -0.07231790
B      1.46515582      0.00595832     -0.89386851
B     -0.11728627      0.81142116     -1.37410756
B      0.80865956     -1.18121932      0.15100865
B     -1.78200326     -0.28335199      0.82378419
B     -0.06332856      0.88204645      1.40792718
B      1.16767581      1.20852578     -0.05664075
B      1.68174463      0.09700545      0.94945951
*
