! BP86 def2-SVP def2/J RI Opt TightSCF D3BJ
! SlowConv

%pal nprocs 8 end
%maxcore 2500

%geom
  MaxIter 300
end

* xyz 0 1
B      2.82732047     -1.24720327     -0.93882014
B     -0.95452788      1.66500693     -1.67287500
B     -0.19826437     -2.33357365     -1.06233292
B     -1.72613040     -1.54977981      1.05952133
B     -2.72739855      0.07727837     -0.71878731
B      0.65379196     -1.56331985      1.60650702
B      0.14390698     -0.03087841      1.07580887
B      1.42962222      1.95305535     -1.80313087
B     -1.65425396      0.75395941      1.39370127
B      2.33036634      0.70998721      1.42559473
B      0.61454660      1.97820210      0.91353686
B     -0.73897941     -0.41273440     -1.27872383
*
