! BP86 def2-SVP def2/J RI Opt TightSCF D3BJ
! SlowConv

%pal nprocs 8 end
%maxcore 2500

%geom
  MaxIter 300
end

* xyz 0 1
B      1.00985346     -0.07841227      0.20572105
B     -0.85696784      1.11995611      0.43930546
B     -0.53956115     -0.73392901      0.30986218
B      3.02426497      0.45840890     -0.13581034
B      2.13063141      2.11736918     -0.02098315
B      0.21766671      3.19606320     -0.18030471
B     -1.80464904      2.40130600      0.03699289
B     -2.99837061      0.81938646     -0.02765127
B     -2.96492368     -1.23826670      0.21927856
B     -1.52943156     -3.10633260     -0.31495157
B      0.97283972     -2.98668465      0.07252451
B      2.68912827     -1.72694028     -0.04662114
*
