! BP86 def2-SVP def2/J RI Opt TightSCF D3BJ
! SlowConv

%pal nprocs 8 end
%maxcore 2500

%geom
  MaxIter 300
end

* xyz 0 1
B      1.88904251     -0.00000000      0.75561701
B      0.94452126      1.63595880      0.75561701
B     -0.94452126      1.63595880      0.75561701
B     -1.88904251      0.00000000      0.75561701
B     -0.94452126     -1.63595880      0.75561701
B      0.94452126     -1.63595880      0.75561701
B      1.63595880      0.94452126     -0.75561701
B      0.00000000      1.88904251     -0.75561701
B     -1.63595880      0.94452126     -0.75561701
B     -1.63595880     -0.94452126     -0.75561701
B     -0.00000000     -1.88904251     -0.75561701
B      1.63595880     -0.94452126     -0.75561701
*
