! BP86 def2-SVP def2/J RI Opt TightSCF D3BJ
! SlowConv

%pal nprocs 8 end
%maxcore 2500

%geom
  MaxIter 300
end

* xyz 0 1
B      3.12500000     -0.00000000      1.25000000
B      3.12500000     -0.00000000     -1.25000000
B      1.56250000      2.70632939      1.25000000
B      1.56250000      2.70632939     -1.25000000
B     -1.56250000      2.70632939      1.25000000
B     -1.56250000      2.70632939     -1.25000000
B     -3.12500000      0.00000000      1.25000000
B     -3.12500000      0.00000000     -1.25000000
B     -1.56250000     -2.70632939      1.25000000
B     -1.56250000     -2.70632939     -1.25000000
B      1.56250000     -2.70632939      1.25000000
B      1.56250000     -2.70632939     -1.25000000
*
