! BP86 def2-SVP def2/J RI Opt TightSCF D3BJ
! SlowConv

%pal nprocs 8 end
%maxcore 2500

%geom
  MaxIter 300
end

* xyz 0 1
B     -5.89255651     -1.17851130      0.00000000
B     -5.89255651      2.35702260     -3.53553391
B     -5.89255651      2.35702260      3.53553391
B     -5.89255651      5.89255651      0.00000000
B      1.17851130     -8.24957911      0.00000000
B      1.17851130      2.35702260    -10.60660172
B      1.17851130      2.35702260     10.60660172
B      1.17851130     12.96362432      0.00000000
B      4.71404521     -8.24957911     -3.53553391
B      4.71404521     -8.24957911      3.53553391
B      4.71404521     -1.17851130    -10.60660172
B      4.71404521     -1.17851130     10.60660172
*
