! BP86 def2-SVP def2/J RI Opt TightSCF D3BJ
! SlowConv

%pal nprocs 8 end
%maxcore 2500

%geom
  MaxIter 300
end

* xyz 0 1
B     -2.12132034     -0.42426407      0.00000000
B     -2.12132034      0.84852814     -1.27279221
B     -2.12132034      0.84852814      1.27279221
B     -2.12132034      2.12132034      0.00000000
B      0.42426407     -2.96984848      0.00000000
B      0.42426407      0.84852814     -3.81837662
B      0.42426407      0.84852814      3.81837662
B      0.42426407      4.66690476      0.00000000
B      1.69705627     -2.96984848     -1.27279221
B      1.69705627     -2.96984848      1.27279221
B      1.69705627     -0.42426407     -3.81837662
B      1.69705627     -0.42426407      3.81837662
*
