! BP86 def2-SVP def2/J RI Opt TightSCF D3BJ
! SlowConv

%pal nprocs 8 end
%maxcore 2500

%geom
  MaxIter 300
end

* xyz 0 1
B      0.01885953     -1.01981573     -1.52197059
B     -0.98426498     -1.69838439      0.05423926
B     -1.42243398      0.14206214     -1.10556029
B     -0.18981322     -1.09349117      1.62423289
B     -1.34875462      1.58521524     -0.18688664
B      1.50819389     -0.08163885     -1.04744502
B      0.06174458      1.15637701     -1.63731419
B      1.20496952     -1.71781319      0.05272651
B     -1.48251346      0.01410184      0.88847511
B     -0.13825881      0.93134113      1.65106326
B      0.84855727      1.58665765     -0.02388375
B      1.69916083      0.03219887      1.05330591
*
