! BP86 def2-SVP def2/J RI Opt TightSCF D3BJ
! SlowConv

%pal nprocs 8 end
%maxcore 2500

%geom
  MaxIter 300
end

* xyz 0 1
B     -2.94627825     -0.58925565      0.00000000
B     -2.94627825      1.17851130     -1.76776695
B     -2.94627825      1.17851130      1.76776695
B     -2.94627825      2.94627825      0.00000000
B      0.58925565     -4.12478956      0.00000000
B      0.58925565      1.17851130     -5.30330086
B      0.58925565      1.17851130      5.30330086
B      0.58925565      6.48181216      0.00000000
B      2.35702260     -4.12478956     -1.76776695
B      2.35702260     -4.12478956      1.76776695
B      2.35702260     -0.58925565     -5.30330086
B      2.35702260     -0.58925565      5.30330086
*
