! BP86 def2-SVP def2/J RI Opt TightSCF D3BJ
! SlowConv

%pal nprocs 8 end
%maxcore 2500

%geom
  MaxIter 300
end

* xyz 0 1
B     -1.25000000     -0.00000000      0.00000000
B     -2.81250000      2.70632939      0.00000000
B     -5.93750000      2.70632939      0.00000000
B     -7.50000000      0.00000000      0.00000000
B     -5.93750000     -2.70632939      0.00000000
B     -2.81250000     -2.70632939      0.00000000
B      7.50000000     -0.00000000      0.00000000
B      5.93750000      2.70632939      0.00000000
B      2.81250000      2.70632939      0.00000000
B      1.25000000      0.00000000      0.00000000
B      2.81250000     -2.70632939      0.00000000
B      5.93750000     -2.70632939      0.00000000
*
