! BP86 def2-SVP def2/J RI Opt TightSCF D3BJ
! SlowConv

%pal nprocs 8 end
%maxcore 2500

%geom
  MaxIter 300
end

* xyz 0 1
B     -1.88561808     -0.37712362      0.00000000
B     -1.88561808      0.75424723     -1.13137085
B     -1.88561808      0.75424723      1.13137085
B     -1.88561808      1.88561808      0.00000000
B      0.37712362     -2.63986532      0.00000000
B      0.37712362      0.75424723     -3.39411255
B      0.37712362      0.75424723      3.39411255
B      0.37712362      4.14835978      0.00000000
B      1.50849447     -2.63986532     -1.13137085
B      1.50849447     -2.63986532      1.13137085
B      1.50849447     -0.37712362     -3.39411255
B      1.50849447     -0.37712362      3.39411255
*
