! BP86 def2-SVP def2/J RI Opt TightSCF D3BJ
! SlowConv

%pal nprocs 8 end
%maxcore 2500

%geom
  MaxIter 300
end

* xyz 0 1
B      2.09893613     -0.00000000      0.83957445
B      1.04946806      1.81773201      0.83957445
B     -1.04946806      1.81773201      0.83957445
B     -2.09893613      0.00000000      0.83957445
B     -1.04946806     -1.81773201      0.83957445
B      1.04946806     -1.81773201      0.83957445
B      1.81773201      1.04946806     -0.83957445
B      0.00000000      2.09893613     -0.83957445
B     -1.81773201      1.04946806     -0.83957445
B     -1.81773201     -1.04946806     -0.83957445
B     -0.00000000     -2.09893613     -0.83957445
B      1.81773201     -1.04946806     -0.83957445
*
