! BP86 def2-SVP def2/J RI Opt TightSCF D3BJ
! SlowConv

%pal nprocs 8 end
%maxcore 2500

%geom
  MaxIter 300
end

* xyz 0 1
B      0.05183763     -1.29097084     -1.36464800
B     -1.60968715      0.13580338     -1.34725738
B     -1.49475655     -1.32704585      0.05468586
B      0.04411987     -1.40995023      1.49622051
B     -1.52468168     -0.02443649      1.34189567
B     -1.32438663      1.42017188     -0.04386851
B     -0.11728627      1.37563473     -1.41299224
B      1.37287313      0.19410957     -1.26320492
B      1.00753919     -1.69756555     -0.02621581
B     -0.06332856      1.44626001      1.44681185
B      1.73188938     -0.16680311      1.35757281
B      1.72062930      1.51121901      0.09945951
*
