! BP86 def2-SVP def2/J RI Opt TightSCF D3BJ
! SlowConv

%pal nprocs 8 end
%maxcore 2500

%geom
  MaxIter 300
end

* xyz 0 1
B      1.03923048      0.00000000      0.28342650
B     -0.51961524      0.90000000      0.28342650
B     -0.51961524     -0.90000000      0.28342650
B      3.29012301      0.33011341     -0.09447550
B      2.30818764      2.36773185     -0.09447550
B      0.24622562      3.29746224     -0.09447550
B     -1.93094811      2.68427340     -0.09447550
B     -3.20460975      0.81508321     -0.09447550
B     -2.97879888     -1.43549348     -0.09447550
B     -1.35917490     -3.01438682     -0.09447550
B      0.89642211     -3.18281506     -0.09447550
B      2.73257326     -1.86196876     -0.09447550
*
