! BP86 def2-SVP def2/J RI Opt TightSCF D3BJ
! SlowConv

%pal nprocs 8 end
%maxcore 2500

%geom
  MaxIter 300
end

* xyz 0 1
B     -0.80000000     -0.00000000      0.00000000
B     -1.80000000      1.73205081      0.00000000
B     -3.80000000      1.73205081      0.00000000
B     -4.80000000      0.00000000      0.00000000
B     -3.80000000     -1.73205081      0.00000000
B     -1.80000000     -1.73205081      0.00000000
B      4.80000000     -0.00000000      0.00000000
B      3.80000000      1.73205081      0.00000000
B      1.80000000      1.73205081      0.00000000
B      0.80000000      0.00000000      0.00000000
B      1.80000000     -1.73205081      0.00000000
B      3.80000000     -1.73205081      0.00000000
*
