! BP86 def2-SVP def2/J RI Opt TightSCF D3BJ
! SlowConv

%pal nprocs 8 end
%maxcore 2500

%geom
  MaxIter 300
end

* xyz 0 1
B      1.15470054      0.00000000      0.31491833
B     -0.57735027      1.00000000      0.31491833
B     -0.57735027     -1.00000000      0.31491833
B      3.65569224      0.36679268     -0.10497278
B      2.56465293      2.63081317     -0.10497278
B      0.27358402      3.66384694     -0.10497278
B     -2.14549790      2.98252600     -0.10497278
B     -3.56067750      0.90564801     -0.10497278
B     -3.30977653     -1.59499276     -0.10497278
B     -1.51019434     -3.34931868     -0.10497278
B      0.99602457     -3.53646118     -0.10497278
B      3.03619251     -2.06885418     -0.10497278
*
