! BP86 def2-SVP def2/J RI Opt TightSCF D3BJ
! SlowConv

%pal nprocs 8 end
%maxcore 2500

%geom
  MaxIter 300
end

* xyz 0 1
B     -2.50000000     -0.00000000      0.00000000
B     -5.62500000      5.41265877      0.00000000
B    -11.87500000      5.41265877      0.00000000
B    -15.00000000      0.00000000      0.00000000
B    -11.87500000     -5.41265877      0.00000000
B     -5.62500000     -5.41265877      0.00000000
B     15.00000000     -0.00000000      0.00000000
B     11.87500000      5.41265877      0.00000000
B      5.62500000      5.41265877      0.00000000
B      2.50000000      0.00000000      0.00000000
B      5.62500000     -5.41265877      0.00000000
B     11.87500000     -5.41265877      0.00000000
*
