! BP86 def2-SVP def2/J RI Opt TightSCF D3BJ
! SlowConv

%pal nprocs 8 end
%maxcore 2500

%geom
  MaxIter 300
end

* xyz 0 1
B     -2.35702260     -0.47140452      0.00000000
B     -2.35702260      0.94280904     -1.41421356
B     -2.35702260      0.94280904      1.41421356
B     -2.35702260      2.35702260      0.00000000
B      0.47140452     -3.29983165      0.00000000
B      0.47140452      0.94280904     -4.24264069
B      0.47140452      0.94280904      4.24264069
B      0.47140452      5.18544973      0.00000000
B      1.88561808     -3.29983165     -1.41421356
B      1.88561808     -3.29983165      1.41421356
B      1.88561808     -0.47140452     -4.24264069
B      1.88561808     -0.47140452      4.24264069
*
