! BP86 def2-SVP def2/J RI Opt TightSCF D3BJ
! SlowConv

%pal nprocs 8 end
%maxcore 2500

%geom
  MaxIter 300
end

* xyz 0 1
B      2.62367016     -0.00000000      1.04946806
B      1.31183508      2.27216501      1.04946806
B     -1.31183508      2.27216501      1.04946806
B     -2.62367016      0.00000000      1.04946806
B     -1.31183508     -2.27216501      1.04946806
B      1.31183508     -2.27216501      1.04946806
B      2.27216501      1.31183508     -1.04946806
B      0.00000000      2.62367016     -1.04946806
B     -2.27216501      1.31183508     -1.04946806
B     -2.27216501     -1.31183508     -1.04946806
B     -0.00000000     -2.62367016     -1.04946806
B      2.27216501     -1.31183508     -1.04946806
*
