! BP86 def2-SVP def2/J RI Opt TightSCF D3BJ
! SlowConv

%pal nprocs 8 end
%maxcore 2500

%geom
  MaxIter 300
end

* xyz 0 1
B      3.14840419     -0.00000000      1.25936168
B      1.57420209      2.72659801      1.25936168
B     -1.57420209      2.72659801      1.25936168
B     -3.14840419      0.00000000      1.25936168
B     -1.57420209     -2.72659801      1.25936168
B      1.57420209     -2.72659801      1.25936168
B      2.72659801      1.57420209     -1.25936168
B      0.00000000      3.14840419     -1.25936168
B     -2.72659801      1.57420209     -1.25936168
B     -2.72659801     -1.57420209     -1.25936168
B     -0.00000000     -3.14840419     -1.25936168
B      2.72659801     -1.57420209     -1.25936168
*
