! BP86 def2-SVP def2/J RI Opt TightSCF D3BJ
! SlowConv

%pal nprocs 8 end
%maxcore 2500

%geom
  MaxIter 300
end

* xyz 0 1
B      1.03333309      0.12324272      0.31724614
B     -0.68622131      0.98580338      0.33463677
B     -0.57129071     -0.76283228      0.32236644
B      3.15145827      0.31603712     -0.00721991
B      2.06948688      2.21175470     -0.16154476
B      0.32237335      3.12022821     -0.13309537
B     -1.94095948      2.49656827     -0.08800553
B     -3.06791631      0.96391038      0.06178179
B     -3.21998442     -1.63909583     -0.11544267
B     -1.34699375     -2.81487443     -0.05662857
B      1.16429670     -3.17279511     -0.14586761
B      2.88717938     -1.66152060      0.01023265
*
