! BP86 def2-SVP def2/J RI Opt TightSCF D3BJ
! SlowConv

%pal nprocs 8 end
%maxcore 2500

%geom
  MaxIter 300
end

* xyz 0 1
B      0.00000000     -3.53553391     -3.53553391
B     -3.53553391      0.00000000     -3.53553391
B     -3.53553391     -3.53553391      0.00000000
B      0.00000000     -3.53553391      3.53553391
B     -3.53553391      0.00000000      3.53553391
B     -3.53553391      3.53553391      0.00000000
B      0.00000000      3.53553391     -3.53553391
B      3.53553391      0.00000000     -3.53553391
B      3.53553391     -3.53553391      0.00000000
B      0.00000000      3.53553391      3.53553391
B      3.53553391      0.00000000      3.53553391
B      3.53553391      3.53553391      0.00000000
*
