! BP86 def2-SVP def2/J RI Opt TightSCF D3BJ
! SlowConv

%pal nprocs 8 end
%maxcore 2500

%geom
  MaxIter 300
end

* xyz 0 1
B     -1.21829493     -1.51368078      1.35366374
B     -2.23797727      0.29865076      0.83891261
B      1.16014125      0.07130599     -2.63720820
B     -0.19066607      0.71444517     -0.99845471
B     -0.43706553     -2.18209890     -1.46008018
B      0.28064074      2.04788617      1.12135002
B     -0.87858667      2.24622387     -0.70927657
B      2.31266238      0.56505847     -1.09605244
B      0.31376296      0.25864966      1.64144201
B      2.19320486     -0.31452119      0.62233855
B     -2.19293974     -0.59977138     -0.60358844
B      0.89511801     -1.59214784      1.92695361
*
