! B3LYP def2-TZVP def2/J RIJCOSX Opt TightSCF D3BJ Freq

%pal nprocs 8 end
%maxcore 2500

%geom
  MaxIter 500
end

* xyz 0 1
  B           0.95241269724601     -0.23462863088092     -0.37981436527942
  B          -0.27303114472682      0.94178959588057     -0.37920443859878
  B          -0.67896634461912     -0.70754143878905     -0.37892133737620
  B           2.45306383156893      0.21193823299371      0.16910599370166
  B           1.41659778774272      1.47615101459208      0.03987762495380
  B           0.11092712071807      2.45989118601698      0.16879317084809
  B          -1.41005864824736      2.01853684261794      0.16878393989058
  B          -1.98642847761616      0.48862563610281      0.04041822516917
  B          -2.18591632358440     -1.13396267122168      0.16912521582025
  B          -1.04316262546313     -2.23056292688420      0.16977066848885
  B           0.56970473132940     -1.96417414693299      0.04204837983511
  B           2.07485737565187     -1.32606270349525      0.17001692254688
*
