! BP86 def2-SVP def2/J RI Opt TightSCF D3BJ
! SlowConv

%pal nprocs 8 end
%maxcore 2500

%geom
  MaxIter 300
end

* xyz 0 1
B      2.50000000     -0.00000000      1.00000000
B      2.50000000     -0.00000000     -1.00000000
B      1.25000000      2.16506351      1.00000000
B      1.25000000      2.16506351     -1.00000000
B     -1.25000000      2.16506351      1.00000000
B     -1.25000000      2.16506351     -1.00000000
B     -2.50000000      0.00000000      1.00000000
B     -2.50000000      0.00000000     -1.00000000
B     -1.25000000     -2.16506351      1.00000000
B     -1.25000000     -2.16506351     -1.00000000
B      1.25000000     -2.16506351      1.00000000
B      1.25000000     -2.16506351     -1.00000000
*
