! BP86 def2-SVP def2/J RI Opt TightSCF D3BJ
! SlowConv

%pal nprocs 8 end
%maxcore 2500

%geom
  MaxIter 300
end

* xyz 0 1
B     -3.53553391     -0.70710678      0.00000000
B     -3.53553391      1.41421356     -2.12132034
B     -3.53553391      1.41421356      2.12132034
B     -3.53553391      3.53553391      0.00000000
B      0.70710678     -4.94974747      0.00000000
B      0.70710678      1.41421356     -6.36396103
B      0.70710678      1.41421356      6.36396103
B      0.70710678      7.77817459      0.00000000
B      2.82842712     -4.94974747     -2.12132034
B      2.82842712     -4.94974747      2.12132034
B      2.82842712     -0.70710678     -6.36396103
B      2.82842712     -0.70710678      6.36396103
*
