! BP86 def2-SVP def2/J RI Opt TightSCF D3BJ
! SlowConv

%pal nprocs 8 end
%maxcore 2500

%geom
  MaxIter 300
end

* xyz 0 1
B      2.15077375      0.12324272      0.88914001
B      0.85399448      1.95353539      0.90653064
B     -1.13001105      1.90489972      0.89426031
B     -2.05481625      0.00426334      0.92158140
B     -1.15993618     -1.84216850      0.76725655
B      1.13929499     -1.81177369      0.79570594
B      1.70044574      1.01088923     -0.83835312
B     -0.04134044      2.29304570     -0.68856580
B     -2.22440638      0.76611608     -0.86579026
B     -1.88106057     -1.01742161     -0.80697616
B      0.31767581     -2.26573924     -0.89621520
B      2.12414775     -0.95246261     -0.74011494
*
